85
120
96	17
95	18
94	17
93	6
92	11
91	13
90	9
89	14
88	11
87	13
86	16
85	12
84	14
83	8
82	6
81	11
80	15
79	13
78	10
77	13
76	20
75	17
74	15
73	9
72	17
71	12
70	10
69	10
68	19
67	16
66	15
65	7
64	16
63	9
62	14
61	19
60	13
59	9
58	7
57	13
56	12
55	12
54	11
53	2
52	11
51	10
50	10
49	14
48	12
47	14
46	11
45	9
44	14
43	12
42	12
41	8
40	8
39	12
38	12
37	16
36	6
35	10
34	13
33	7
32	9
31	11
30	11
29	18
28	11
27	10
26	8
25	11
24	5
23	9
22	13
21	12
20	11
19	13
18	12
17	10
16	8
15	12
14	9
13	11
12	14
